c Choco e747e1e
v <instantiation id='sol1' type='solution' ><list>Leslie Holly Andrea Julie Victoria </list><values>2 3 1 5 4 </values></instantiation>

s SATISFIABLE
v <instantiation id='sol1' type='solution' ><list>Leslie Holly Andrea Julie Victoria </list><values>2 3 1 5 4 </values></instantiation>
d FOUND SOLUTIONS 1

